# Solution for model obj
# Objective value = 1.5169690351953179e+02
ch1_1_time0_q_out 849.1
ch1_1_time0_y 1
ch2_1_time0_q_out 0
ch2_1_time0_y 0
ch3_1_time0_q_out 0
ch3_1_time0_y 0
ep1_1_time0_m_flow 0
ep1_1_time0_y 1
ep1_1_time0_delp 5.2020575515464218e+00
ep2_1_time0_m_flow 0
ep2_1_time0_y 0
ep2_1_time0_delp 0
ep3_1_time0_m_flow 0
ep3_1_time0_y 0
ep3_1_time0_delp 0
cp1_1_time0_m_flow 0
cp1_1_time0_y 1
cp1_1_time0_delp 5.7548046450263639e+00
cp2_1_time0_m_flow 0
cp2_1_time0_y 0
cp2_1_time0_delp 0
cp3_1_time0_m_flow 0
cp3_1_time0_y 0
cp3_1_time0_delp 0
dist_np_combi_0_0_time0_m_flow 0
dist_np_combi_0_0_time0_y 0
dist_np_combi_0_0_time0_delp 0
dist_np_combi_1_0_time0_m_flow 0
dist_np_combi_1_0_time0_y 0
dist_np_combi_1_0_time0_delp 0
dist_np_combi_2_0_time0_m_flow 0
dist_np_combi_2_0_time0_y 0
dist_np_combi_2_0_time0_delp 0
dist_np_combi_3_0_time0_m_flow 0
dist_np_combi_3_0_time0_y 0
dist_np_combi_3_0_time0_delp 0
dist_np_combi_4_0_time0_m_flow 0
dist_np_combi_4_0_time0_y 0
dist_np_combi_4_0_time0_delp 0
dist_np_combi_5_0_time0_m_flow 0
dist_np_combi_5_0_time0_y 1
dist_np_combi_5_0_time0_delp 7.4498970342739934e-01
dist_np_combi_6_0_time0_m_flow 0
dist_np_combi_6_0_time0_y 0
dist_np_combi_6_0_time0_delp 0
enwk_1_time0_m_flow 0
enwk_1_time0_y 1
cnwk_1_time0_m_flow 0
cnwk_1_time0_y 1
cts_time0_q_rej 0
cts_time0_y 1
ch1_1_time1_q_out 1.8747299312187506e+03
ch1_1_time1_y 1
ch2_1_time1_q_out 0
ch2_1_time1_y 0
ch3_1_time1_q_out 0
ch3_1_time1_y 0
ep1_1_time1_m_flow 0
ep1_1_time1_y 1
ep1_1_time1_delp 1.1485635373697569e+01
ep2_1_time1_m_flow 0
ep2_1_time1_y 0
ep2_1_time1_delp 0
ep3_1_time1_m_flow 0
ep3_1_time1_y 0
ep3_1_time1_delp 0
cp1_1_time1_m_flow 0
cp1_1_time1_y 1
cp1_1_time1_delp 1.2099396134814739e+01
cp2_1_time1_m_flow 0
cp2_1_time1_y 0
cp2_1_time1_delp 0
cp3_1_time1_m_flow 0
cp3_1_time1_y 0
cp3_1_time1_delp 0
dist_np_combi_0_0_time1_m_flow 0
dist_np_combi_0_0_time1_y 0
dist_np_combi_0_0_time1_delp 0
dist_np_combi_1_0_time1_m_flow 0
dist_np_combi_1_0_time1_y 0
dist_np_combi_1_0_time1_delp 0
dist_np_combi_2_0_time1_m_flow 0
dist_np_combi_2_0_time1_y 0
dist_np_combi_2_0_time1_delp 0
dist_np_combi_3_0_time1_m_flow 0
dist_np_combi_3_0_time1_y 0
dist_np_combi_3_0_time1_delp 0
dist_np_combi_4_0_time1_m_flow 0
dist_np_combi_4_0_time1_y 0
dist_np_combi_4_0_time1_delp 0
dist_np_combi_5_0_time1_m_flow 0
dist_np_combi_5_0_time1_y 1
dist_np_combi_5_0_time1_delp 7.4498970342739934e-01
dist_np_combi_6_0_time1_m_flow 0
dist_np_combi_6_0_time1_y 0
dist_np_combi_6_0_time1_delp 0
enwk_1_time1_m_flow 0
enwk_1_time1_y 1
cnwk_1_time1_m_flow 0
cnwk_1_time1_y 1
cts_time1_q_rej 0
cts_time1_y 1
ch1_1_time2_q_out 0
ch1_1_time2_y 0
ch2_1_time2_q_out 0
ch2_1_time2_y 0
ch3_1_time2_q_out 0
ch3_1_time2_y 0
ep1_1_time2_m_flow 0
ep1_1_time2_y 0
ep1_1_time2_delp 0
ep2_1_time2_m_flow 0
ep2_1_time2_y 0
ep2_1_time2_delp 0
ep3_1_time2_m_flow 0
ep3_1_time2_y 0
ep3_1_time2_delp 0
cp1_1_time2_m_flow 0
cp1_1_time2_y 0
cp1_1_time2_delp 0
cp2_1_time2_m_flow 0
cp2_1_time2_y 0
cp2_1_time2_delp 0
cp3_1_time2_m_flow 0
cp3_1_time2_y 0
cp3_1_time2_delp 0
dist_np_combi_0_0_time2_m_flow 0
dist_np_combi_0_0_time2_y 0
dist_np_combi_0_0_time2_delp 0
dist_np_combi_1_0_time2_m_flow 0
dist_np_combi_1_0_time2_y 0
dist_np_combi_1_0_time2_delp 0
dist_np_combi_2_0_time2_m_flow 0
dist_np_combi_2_0_time2_y 0
dist_np_combi_2_0_time2_delp 0
dist_np_combi_3_0_time2_m_flow 0
dist_np_combi_3_0_time2_y 0
dist_np_combi_3_0_time2_delp 0
dist_np_combi_4_0_time2_m_flow 0
dist_np_combi_4_0_time2_y 0
dist_np_combi_4_0_time2_delp 0
dist_np_combi_5_0_time2_m_flow 0
dist_np_combi_5_0_time2_y 1
dist_np_combi_5_0_time2_delp 3.2272910923302600e-01
dist_np_combi_6_0_time2_m_flow 0
dist_np_combi_6_0_time2_y 0
dist_np_combi_6_0_time2_delp 0
enwk_1_time2_m_flow 0
enwk_1_time2_y 1
cnwk_1_time2_m_flow 0
cnwk_1_time2_y 1
cts_time2_q_rej 0
cts_time2_y 1
ch1_1_time3_q_out 0
ch1_1_time3_y 0
ch2_1_time3_q_out 0
ch2_1_time3_y 0
ch3_1_time3_q_out 0
ch3_1_time3_y 0
ep1_1_time3_m_flow 0
ep1_1_time3_y 0
ep1_1_time3_delp 0
ep2_1_time3_m_flow 0
ep2_1_time3_y 0
ep2_1_time3_delp 0
ep3_1_time3_m_flow 0
ep3_1_time3_y 0
ep3_1_time3_delp 0
cp1_1_time3_m_flow 0
cp1_1_time3_y 0
cp1_1_time3_delp 0
cp2_1_time3_m_flow 0
cp2_1_time3_y 0
cp2_1_time3_delp 0
cp3_1_time3_m_flow 0
cp3_1_time3_y 0
cp3_1_time3_delp 0
dist_np_combi_0_0_time3_m_flow 0
dist_np_combi_0_0_time3_y 0
dist_np_combi_0_0_time3_delp 0
dist_np_combi_1_0_time3_m_flow 0
dist_np_combi_1_0_time3_y 0
dist_np_combi_1_0_time3_delp 0
dist_np_combi_2_0_time3_m_flow 0
dist_np_combi_2_0_time3_y 0
dist_np_combi_2_0_time3_delp 0
dist_np_combi_3_0_time3_m_flow 0
dist_np_combi_3_0_time3_y 0
dist_np_combi_3_0_time3_delp 0
dist_np_combi_4_0_time3_m_flow 0
dist_np_combi_4_0_time3_y 0
dist_np_combi_4_0_time3_delp 0
dist_np_combi_5_0_time3_m_flow 0
dist_np_combi_5_0_time3_y 1
dist_np_combi_5_0_time3_delp 6.6728714303784098e-01
dist_np_combi_6_0_time3_m_flow 0
dist_np_combi_6_0_time3_y 0
dist_np_combi_6_0_time3_delp 0
enwk_1_time3_m_flow 0
enwk_1_time3_y 1
cnwk_1_time3_m_flow 0
cnwk_1_time3_y 1
cts_time3_q_rej 0
cts_time3_y 1
cws_time0_q_stored_extracted 0
cws_time0_y 1
cws_time1_q_stored_extracted 1.0156299312187505e+03
cws_time1_y 1
cws_time2_q_stored_extracted 4.5810504587499997e+02
cws_time2_y 1
cws_time3_q_stored_extracted 0
cws_time3_y 1
cb_ss_time0_demand 849.1
cb_ss_time0_y 1
cb_ss_time1_demand 859.1
cb_ss_time1_y 1
cb_ss_time2_demand 3.5439889909999999e+02
cb_ss_time2_y 1
cb_ss_time3_demand 3.6648403669999999e+02
cb_ss_time3_y 1
